(set-logic HORN)
(declare-datatypes ((Bool_6 0)) (((false_6 ) (true_6 ))))
(declare-fun diseqBool_1 (Bool_6 Bool_6) Bool)
(declare-fun isfalse_1 (Bool_6) Bool)
(declare-fun istrue_1 (Bool_6) Bool)
(assert (isfalse_1 false_6))
(assert (istrue_1 true_6))
(assert (diseqBool_1 false_6 true_6))
(assert (diseqBool_1 true_6 false_6))
(declare-fun and_6 (Bool_6 Bool_6 Bool_6) Bool)
(declare-fun or_6 (Bool_6 Bool_6 Bool_6) Bool)
(declare-fun hence_6 (Bool_6 Bool_6 Bool_6) Bool)
(declare-fun not_6 (Bool_6 Bool_6) Bool)
(assert (and_6 false_6 false_6 false_6))
(assert (and_6 false_6 true_6 false_6))
(assert (and_6 false_6 false_6 true_6))
(assert (and_6 true_6 true_6 true_6))
(assert (or_6 false_6 false_6 false_6))
(assert (or_6 true_6 true_6 false_6))
(assert (or_6 true_6 false_6 true_6))
(assert (or_6 true_6 true_6 true_6))
(assert (hence_6 true_6 false_6 false_6))
(assert (hence_6 false_6 true_6 false_6))
(assert (hence_6 true_6 false_6 true_6))
(assert (hence_6 true_6 true_6 true_6))
(assert (not_6 true_6 false_6))
(assert (not_6 false_6 true_6))
(declare-datatypes ((Nat_11 0)) (((Z_33 ) (S_11 (projS_10 Nat_11)))))
(declare-fun diseqNat_11 (Nat_11 Nat_11) Bool)
(declare-fun projS_11 (Nat_11 Nat_11) Bool)
(declare-fun isZ_11 (Nat_11) Bool)
(declare-fun isS_11 (Nat_11) Bool)
(assert (forall ((x_388 Nat_11))
	(projS_11 x_388 (S_11 x_388))))
(assert (isZ_11 Z_33))
(assert (forall ((x_390 Nat_11))
	(isS_11 (S_11 x_390))))
(assert (forall ((x_391 Nat_11))
	(diseqNat_11 Z_33 (S_11 x_391))))
(assert (forall ((x_392 Nat_11))
	(diseqNat_11 (S_11 x_392) Z_33)))
(assert (forall ((x_393 Nat_11) (x_394 Nat_11))
	(=> (diseqNat_11 x_393 x_394)
	    (diseqNat_11 (S_11 x_393) (S_11 x_394)))))
(declare-fun x_370 (Bool_6 Nat_11 Nat_11) Bool)
(assert (forall ((x_375 Bool_6) (x_372 Nat_11) (z_34 Nat_11))
	(=> (x_370 x_375 z_34 x_372)
	    (x_370 x_375 (S_11 z_34) (S_11 x_372)))))
(assert (forall ((z_34 Nat_11))
	(x_370 false_6 (S_11 z_34) Z_33)))
(assert (forall ((y_28 Nat_11))
	(x_370 true_6 Z_33 y_28)))
(declare-fun x_373 (Nat_11 Nat_11 Nat_11) Bool)
(assert (forall ((x_380 Nat_11) (z_35 Nat_11) (y_29 Nat_11))
	(=> (x_373 x_380 z_35 y_29)
	    (x_373 (S_11 x_380) (S_11 z_35) y_29))))
(assert (forall ((x_381 Nat_11))
	(x_373 x_381 Z_33 x_381)))
(assert (forall ((x_382 Nat_11) (n_1 Nat_11) (m_0 Nat_11))
	(=>	(and true
			(x_373 x_382 n_1 m_0)
			(x_370 false_6 n_1 x_382))
		false)))
(check-sat)
